************************************************************************
file with basedata            : J12053_.BAS
initial value random generator: 12494
************************************************************************
projects                      :  1
jobs (incl. supersource/sink ):  122
horizon                       :  662
RESOURCES
  - renewable                 :  4   R
  - nonrenewable              :  0   N
  - doubly constrained        :  0   D
************************************************************************
PROJECT INFORMATION:
pronr.  #jobs rel.date duedate tardcost  MPM-Time
    1    120      0      123       63      123
************************************************************************
PRECEDENCE RELATIONS:
jobnr.    #modes  #successors   successors
   1        1          3           2   3   4
   2        1          3           5   9  38
   3        1          3          11  20  61
   4        1          3           6   8  58
   5        1          2          52  68
   6        1          3           7  12  33
   7        1          3          10  14  17
   8        1          3          19  34  43
   9        1          1          50
  10        1          3          43  55  79
  11        1          3          25  59  94
  12        1          3          13  48  56
  13        1          3          18  31  44
  14        1          2          15  60
  15        1          3          16  22  26
  16        1          3          18  24  78
  17        1          2          21  27
  18        1          3          64  82  83
  19        1          3          22  36  39
  20        1          1          41
  21        1          3          23  35  42
  22        1          2          32  54
  23        1          2          69  87
  24        1          3          28  40  94
  25        1          2          26  30
  26        1          3          29  86  97
  27        1          2          66  80
  28        1          3          37  51  87
  29        1          3          49  89  93
  30        1          2          52  74
  31        1          3          45  57  66
  32        1          3          45  46  63
  33        1          3          46  65  66
  34        1          2          95 106
  35        1          2          89 120
  36        1          3          41  78  84
  37        1          2          64  90
  38        1          3          40  54  62
  39        1          3          61  79 118
  40        1          2          93 111
  41        1          1         103
  42        1          2          47  54
  43        1          3          51  53  69
  44        1          3          46  79  84
  45        1          1          65
  46        1          3          53  57  67
  47        1          2          51  56
  48        1          3          50  57  67
  49        1          2          73 107
  50        1          3          75  78  97
  51        1          2          63  72
  52        1          3          55  80 112
  53        1          3          62  68  70
  54        1          2          70 109
  55        1          3          77  87  99
  56        1          3          63  74  81
  57        1          3          64  74 107
  58        1          2          76 118
  59        1          2          71  92
  60        1          2          70  84
  61        1          2          83 105
  62        1          3          81 101 103
  63        1          3          67  76 121
  64        1          3          71  72  86
  65        1          3          77  80 117
  66        1          2          92 104
  67        1          2          89 113
  68        1          3          82  88 105
  69        1          2          76 104
  70        1          3          75  81  83
  71        1          1         105
  72        1          3          73  96  97
  73        1          2          77 115
  74        1          3          75  82 106
  75        1          2          90  99
  76        1          2          85  95
  77        1          2         102 109
  78        1          1          91
  79        1          2          86  90
  80        1          2         102 107
  81        1          2          88 100
  82        1          3          85  96 100
  83        1          2          88  91
  84        1          3          85 100 116
  85        1          1         112
  86        1          1          98
  87        1          2          96  98
  88        1          1          94
  89        1          2          91  95
  90        1          2          93  98
  91        1          1          92
  92        1          1         114
  93        1          2         101 108
  94        1          3          99 104 108
  95        1          2         111 116
  96        1          1         110
  97        1          3         102 103 118
  98        1          1         101
  99        1          2         113 120
 100        1          1         108
 101        1          1         110
 102        1          1         121
 103        1          1         115
 104        1          1         111
 105        1          1         106
 106        1          1         110
 107        1          1         109
 108        1          2         112 120
 109        1          1         121
 110        1          1         113
 111        1          1         117
 112        1          1         114
 113        1          2         114 116
 114        1          1         115
 115        1          1         117
 116        1          1         119
 117        1          1         119
 118        1          1         119
 119        1          1         122
 120        1          1         122
 121        1          1         122
 122        1          0        
************************************************************************
REQUESTS/DURATIONS:
jobnr. mode duration  R 1  R 2  R 3  R 4
------------------------------------------------------------------------
  1      1     0       0    0    0    0
  2      1     8       2    1    5    5
  3      1     1       6   10    0    0
  4      1     6      10    4    0    7
  5      1    10       0    7    8    9
  6      1     1       0    2    0    6
  7      1     2       5    2    9    4
  8      1     2       2    2    0    0
  9      1     6       1    0    0    1
 10      1     9       4    0    8    1
 11      1     5       2    1    9    0
 12      1     1       9    0    9    0
 13      1     7       8    9    1    6
 14      1    10       9    5    3   10
 15      1     1       0    5    1   10
 16      1    10       2    1    0    0
 17      1     6       0    6    0    0
 18      1     6       5    0    3    1
 19      1    10       8    1    5    4
 20      1     5       0    2    8   10
 21      1     2       5    9    0    0
 22      1     6       0    8    0    8
 23      1     6       4    7    3    9
 24      1     8       3    6    9    5
 25      1     7       1    0    0    0
 26      1     4       1    8    8    0
 27      1     4       6    3    5    0
 28      1     7      10    7    0    9
 29      1     6       1    5    6    6
 30      1    10       7    6   10    2
 31      1     8       0    2    0    3
 32      1     7       5    2   10    0
 33      1     5       6    3    6    0
 34      1     5       4    0   10    6
 35      1     3      10    5    0    3
 36      1     8       7    0   10    0
 37      1     8      10    8    9    8
 38      1    10       7    0    0    4
 39      1     4       0    9    0    4
 40      1     6       0    3    6    0
 41      1     6       0    0   10    5
 42      1     3       0    6    9    0
 43      1     9       9    4    0    3
 44      1     2       2    5    9    7
 45      1     9      10    8    7    9
 46      1     7       1    0    4   10
 47      1     9       5    0    6    0
 48      1    10       6    6    5    3
 49      1     2       8   10    1    8
 50      1     1       4    8    9    4
 51      1     3       9    0    5    8
 52      1    10       0    1    1    9
 53      1     1       5    0    9    9
 54      1     2       0    4    2    3
 55      1     9       0    2    0    4
 56      1     5      10    5   10    8
 57      1     2       2    0    0    7
 58      1     6       7    8    9    4
 59      1     8       5    4    1    5
 60      1     2       3    0    2    4
 61      1     5       2    7    9    9
 62      1     5       9    2   10    9
 63      1     4       1    7    4    7
 64      1     9       9    0    0    1
 65      1     8      10    0    5    1
 66      1     3       0    4   10    2
 67      1     3       4    0    4    1
 68      1     7       0    0    8    1
 69      1     9       5    1    6   10
 70      1     1       3    7    6    0
 71      1     2      10    0    9    5
 72      1     9       0    9    8    0
 73      1     6       2    7    2    0
 74      1    10       0    8    6    6
 75      1     8       0    8    5    1
 76      1     1       1    1    3    6
 77      1     8       1    5    0    7
 78      1     6       5    6    0    0
 79      1     6       0    3   10    0
 80      1     5       3    9    4    7
 81      1     6       1    5    6    4
 82      1     5       0    9    0    6
 83      1     5       0    0    0    4
 84      1     3       6    9   10    9
 85      1     6       4    3    3    0
 86      1     6       8    1    0    3
 87      1     1       0    5   10    4
 88      1     7      10    6    1    7
 89      1     1       0    2    3    2
 90      1     4       8    6    7   10
 91      1     4       2    0    4    4
 92      1     1       0    5    0    6
 93      1     6       0    1    0    5
 94      1     5       9    0    9    0
 95      1     7       7    6    2    0
 96      1     3       0    8    9    4
 97      1     5       0    1    3   10
 98      1     8       4    8    6    0
 99      1     4       0    0    6   10
100      1     5       0    3    7    7
101      1     8       9    4    0    1
102      1     4       4    8    6    3
103      1     9       9    1    5    6
104      1     9       2    4    5   10
105      1     5       8    5    4    0
106      1     3       1    9    9    5
107      1     5       7    8    0    1
108      1     6       7    1    8    0
109      1     2       7    9    6    0
110      1     6       5    0    4    2
111      1     9       4    6    8    8
112      1     6       9    0    8    9
113      1     5       4    6    9   10
114      1     9       0    0    6   10
115      1     2       2    6    3    0
116      1     1       0    9    7    7
117      1     7       1    5    0    0
118      1     2      10    4    7    1
119      1    10       8    1    8    5
120      1     3      10    3    9    0
121      1     8       0    7    4    2
122      1     0       0    0    0    0
************************************************************************
RESOURCEAVAILABILITIES:
  R 1  R 2  R 3  R 4
   27   24   26   23
************************************************************************
